(set-logic QF_S)
(declare-fun var_0xINPUT_163637 () String)
(assert (and (= (len var_0xINPUT_163637) 0) (= (len var_0xINPUT_163637) 0) (not (= var_0xINPUT_163637 "A9jaaDKZbG"))))
(check-sat var_0xINPUT_163637)